GLPSOL: GLPK LP/MIP Solver, v4.60
Parameter(s) specified in the command line:
 -m mathmod2.mod -d glp_15_05.dat -o gl2_15_05.res --tmlim 120
Reading model section from mathmod2.mod...
30 lines were read
Reading data section from glp_15_05.dat...
(unknown):0: unable to open glp_15_05.dat - No such file or directory
Context:                                                             
MathProg model processing error
